20J6M/DAT/20J6MULL-6.dat
20 6
1.6119 1.6119
47.7064 47.7064
27.6933 27.6933
2.4166 2.4166
42.1591 42.1591
29.8965 29.8965
26.3011 26.3011
38.0313 38.0313
47.8949 47.8949
43.7774 43.7774
42.7693 42.7693
19.0511 19.0511
21.581 21.581
49.7554 49.7554
30.7548 30.7548
12.5081 12.5081
31.4113 31.4113
3.4294 3.4294
49.9119 49.9119
49.0122 49.0122
102.9455