20J6M/SOL/20J6MULL-6.sol
solution status: optimal solution found
objective value:                             102.9455
x#1#4                                               1 	(obj:0)
x#2#2                                               1 	(obj:0)
x#3#3                                               1 	(obj:0)
x#4#2                                               1 	(obj:0)
x#5#5                                               1 	(obj:0)
x#6#4                                               1 	(obj:0)
x#7#3                                               1 	(obj:0)
x#8#4                               0.891860125738536 	(obj:0)
x#8#5                               0.108139874261464 	(obj:0)
x#9#6                                               1 	(obj:0)
x#10#2                              0.422935121775163 	(obj:0)
x#10#5                              0.577064878224837 	(obj:0)
x#11#6                                              1 	(obj:0)
x#12#3                                              1 	(obj:0)
x#13#4                                              1 	(obj:0)
x#14#1                                              1 	(obj:0)
x#15#1                             0.0277940354026042 	(obj:0)
x#15#3                              0.972205964597396 	(obj:0)
x#16#4                                              1 	(obj:0)
x#17#5                                              1 	(obj:0)
x#18#4                                              1 	(obj:0)
x#19#1                                              1 	(obj:0)
x#20#1                             0.0494448321030271 	(obj:0)
x#20#2                              0.699978780793353 	(obj:0)
x#20#6                              0.250576387103619 	(obj:0)
z                                            102.9455 	(obj:1)
